p cnf 500 1193
a 293 296 300 303 308 311 315 318 324 327 331 445 337 340 344 347 354 357 361 364 369 372 376 474 384 387 391 394 399 402 490 407 7 13 24 30 2 1 40 18 6 12 35 23 29 50 45 60 55 70 65 80 75 85 90 95 105 100 110 115 120 130 125 135 140 145 150 167 162 154 158 178 173 188 183 197 193 202 208 213 218 233 228 224 238 243 248 252 260 256 265 270 275 280 285 289 0
d 168 24 30 0
d 334 445 248 252 2 0
d 203 24 30 0
d 406 2 490 285 289 13 0
d 379 2 474 0
d 3 2 0
d 4 1 2 0
d 5 1 2 0
d 8 7 0
d 9 6 7 0
d 10 6 7 0
d 11 1 2 6 7 0
d 14 13 0
d 15 12 13 0
d 16 12 13 0
d 17 1 2 6 7 12 13 0
d 19 6 12 0
d 20 18 6 12 0
d 21 18 6 12 0
d 22 1 2 6 7 12 13 18 0
d 25 24 0
d 26 23 24 0
d 27 23 24 0
d 28 1 2 6 7 12 13 18 23 24 0
d 31 30 0
d 32 29 30 0
d 33 29 30 0
d 34 1 2 6 7 12 13 18 23 24 29 30 0
d 36 23 29 0
d 37 35 23 29 0
d 38 35 23 29 0
d 39 1 2 6 7 12 13 18 23 24 29 30 35 0
d 41 18 35 0
d 42 40 18 35 0
d 43 40 18 35 0
d 44 1 2 6 7 12 13 18 23 24 29 30 35 40 0
d 46 7 12 0
d 47 45 7 12 0
d 48 45 7 12 0
d 49 1 2 6 7 12 13 18 23 24 29 30 35 40 45 0
d 51 45 35 0
d 52 50 45 35 0
d 53 50 45 35 0
d 54 1 2 6 7 12 13 18 23 24 29 30 35 40 45 50 0
d 56 6 13 0
d 57 55 6 13 0
d 58 55 6 13 0
d 59 1 2 6 7 12 13 18 23 24 29 30 35 40 45 50 55 0
d 61 55 35 0
d 62 60 55 35 0
d 63 60 55 35 0
d 64 1 2 6 7 12 13 18 23 24 29 30 35 40 45 50 55 60 0
d 66 7 13 0
d 67 65 7 13 0
d 68 65 7 13 0
d 69 1 2 6 7 12 13 18 23 24 29 30 35 40 45 50 55 60 65 0
d 71 65 35 0
d 72 70 65 35 0
d 73 70 65 35 0
d 74 1 2 6 7 12 13 18 23 24 29 30 35 40 45 50 55 60 65 70 0
d 76 24 29 0
d 77 75 24 29 0
d 78 75 24 29 0
d 79 1 2 6 7 12 13 18 23 24 29 30 35 40 45 50 55 60 65 70 75 0
d 81 18 75 0
d 82 80 18 75 0
d 83 80 18 75 0
d 84 1 2 6 7 12 13 18 23 24 29 30 35 40 45 50 55 60 65 70 75 80 0
d 86 45 75 0
d 87 85 45 75 0
d 88 85 45 75 0
d 89 1 2 6 7 12 13 18 23 24 29 30 35 40 45 50 55 60 65 70 75 80 85 0
d 91 55 75 0
d 92 90 55 75 0
d 93 90 55 75 0
d 94 1 2 6 7 12 13 18 23 24 29 30 35 40 45 50 55 60 65 70 75 80 85 90 0
d 96 65 75 0
d 97 95 65 75 0
d 98 95 65 75 0
d 99 1 2 6 7 12 13 18 23 24 29 30 35 40 45 50 55 60 65 70 75 80 85 90 95 0
d 101 23 30 0
d 102 100 23 30 0
d 103 100 23 30 0
d 104 1 2 6 7 12 13 18 23 24 29 30 35 40 45 50 55 60 65 70 75 80 85 90 95 100 0
d 106 18 100 0
d 107 105 18 100 0
d 108 105 18 100 0
d 109 1 2 6 7 12 13 18 23 24 29 30 35 40 45 50 55 60 65 70 75 80 85 90 95 100 105 0
d 111 45 100 0
d 112 110 45 100 0
d 113 110 45 100 0
d 114 1 2 6 7 12 13 18 23 24 29 30 35 40 45 50 55 60 65 70 75 80 85 90 95 100 105 110 0
d 116 55 100 0
d 117 115 55 100 0
d 118 115 55 100 0
d 119 1 2 6 7 12 13 18 23 24 29 30 35 40 45 50 55 60 65 70 75 80 85 90 95 100 105 110 115 0
d 121 65 100 0
d 122 120 65 100 0
d 123 120 65 100 0
d 124 1 2 6 7 12 13 18 23 24 29 30 35 40 45 50 55 60 65 70 75 80 85 90 95 100 105 110 115 120 0
d 126 24 30 0
d 127 125 24 30 0
d 128 125 24 30 0
d 129 1 2 6 7 12 13 18 23 24 29 30 35 40 45 50 55 60 65 70 75 80 85 90 95 100 105 110 115 120 125 0
d 131 18 125 0
d 132 130 18 125 0
d 133 130 18 125 0
d 134 1 2 6 7 12 13 18 23 24 29 30 35 40 45 50 55 60 65 70 75 80 85 90 95 100 105 110 115 120 125 130 0
d 136 45 125 0
d 137 135 45 125 0
d 138 135 45 125 0
d 139 1 2 6 7 12 13 18 23 24 29 30 35 40 45 50 55 60 65 70 75 80 85 90 95 100 105 110 115 120 125 130 135 0
d 141 55 125 0
d 142 140 55 125 0
d 143 140 55 125 0
d 144 1 2 6 7 12 13 18 23 24 29 30 35 40 45 50 55 60 65 70 75 80 85 90 95 100 105 110 115 120 125 130 135 140 0
d 146 65 125 0
d 147 145 65 125 0
d 148 145 65 125 0
d 149 1 2 6 7 12 13 18 23 24 29 30 35 40 45 50 55 60 65 70 75 80 85 90 95 100 105 110 115 120 125 130 135 140 145 0
d 151 150 2 0
d 152 150 2 0
d 153 1 2 6 7 12 13 18 23 24 29 30 35 40 45 50 55 60 65 70 75 80 85 90 95 100 105 110 115 120 125 130 135 140 145 150 0
d 155 154 7 0
d 156 154 7 0
d 157 1 2 6 7 12 13 18 23 24 29 30 35 40 45 50 55 60 65 70 75 80 85 90 95 100 105 110 115 120 125 130 135 140 145 150 154 0
d 159 158 13 0
d 160 158 13 0
d 161 1 2 6 7 12 13 18 23 24 29 30 35 40 45 50 55 60 65 70 75 80 85 90 95 100 105 110 115 120 125 130 135 140 145 150 154 158 0
d 163 154 158 0
d 164 162 154 158 0
d 165 162 154 158 0
d 166 1 2 6 7 12 13 18 23 24 29 30 35 40 45 50 55 60 65 70 75 80 85 90 95 100 105 110 115 120 125 130 135 140 145 150 154 158 162 0
d 169 162 24 30 0
d 170 167 162 24 30 0
d 171 167 162 24 30 0
d 172 1 2 6 7 12 13 18 23 24 29 30 35 40 45 50 55 60 65 70 75 80 85 90 95 100 105 110 115 120 125 130 135 140 145 150 154 158 162 167 0
d 174 7 158 0
d 175 173 7 158 0
d 176 173 7 158 0
d 177 1 2 6 7 12 13 18 23 24 29 30 35 40 45 50 55 60 65 70 75 80 85 90 95 100 105 110 115 120 125 130 135 140 145 150 154 158 162 167 173 0
d 179 173 24 30 0
d 180 178 173 24 30 0
d 181 178 173 24 30 0
d 182 1 2 6 7 12 13 18 23 24 29 30 35 40 45 50 55 60 65 70 75 80 85 90 95 100 105 110 115 120 125 130 135 140 145 150 154 158 162 167 173 178 0
d 184 154 13 0
d 185 183 154 13 0
d 186 183 154 13 0
d 187 1 2 6 7 12 13 18 23 24 29 30 35 40 45 50 55 60 65 70 75 80 85 90 95 100 105 110 115 120 125 130 135 140 145 150 154 158 162 167 173 178 183 0
d 189 183 24 30 0
d 190 188 183 24 30 0
d 191 188 183 24 30 0
d 192 1 2 6 7 12 13 18 23 24 29 30 35 40 45 50 55 60 65 70 75 80 85 90 95 100 105 110 115 120 125 130 135 140 145 150 154 158 162 167 173 178 183 188 0
d 194 193 7 13 0
d 195 193 7 13 0
d 196 1 2 6 7 12 13 18 23 24 29 30 35 40 45 50 55 60 65 70 75 80 85 90 95 100 105 110 115 120 125 130 135 140 145 150 154 158 162 167 173 178 183 188 193 0
d 198 193 24 30 0
d 199 197 193 24 30 0
d 200 197 193 24 30 0
d 201 1 2 6 7 12 13 18 23 24 29 30 35 40 45 50 55 60 65 70 75 80 85 90 95 100 105 110 115 120 125 130 135 140 145 150 154 158 162 167 173 178 183 188 193 197 0
d 204 162 24 30 0
d 205 202 162 24 30 0
d 206 202 162 24 30 0
d 207 1 2 6 7 12 13 18 23 24 29 30 35 40 45 50 55 60 65 70 75 80 85 90 95 100 105 110 115 120 125 130 135 140 145 150 154 158 162 167 173 178 183 188 193 197 202 0
d 209 173 24 30 0
d 210 208 173 24 30 0
d 211 208 173 24 30 0
d 212 1 2 6 7 12 13 18 23 24 29 30 35 40 45 50 55 60 65 70 75 80 85 90 95 100 105 110 115 120 125 130 135 140 145 150 154 158 162 167 173 178 183 188 193 197 202 208 0
d 214 183 24 30 0
d 215 213 183 24 30 0
d 216 213 183 24 30 0
d 217 1 2 6 7 12 13 18 23 24 29 30 35 40 45 50 55 60 65 70 75 80 85 90 95 100 105 110 115 120 125 130 135 140 145 150 154 158 162 167 173 178 183 188 193 197 202 208 213 0
d 219 193 24 30 0
d 220 193 24 30 0
d 221 218 193 24 30 0
d 222 218 193 24 30 0
d 223 1 2 6 7 12 13 18 23 24 29 30 35 40 45 50 55 60 65 70 75 80 85 90 95 100 105 110 115 120 125 130 135 140 145 150 154 158 162 167 173 178 183 188 193 197 202 208 213 218 0
d 225 224 24 0
d 226 224 24 0
d 227 1 2 6 7 12 13 18 23 24 29 30 35 40 45 50 55 60 65 70 75 80 85 90 95 100 105 110 115 120 125 130 135 140 145 150 154 158 162 167 173 178 183 188 193 197 202 208 213 218 224 0
d 229 224 30 0
d 230 228 224 30 0
d 231 228 224 30 0
d 232 1 2 6 7 12 13 18 23 24 29 30 35 40 45 50 55 60 65 70 75 80 85 90 95 100 105 110 115 120 125 130 135 140 145 150 154 158 162 167 173 178 183 188 193 197 202 208 213 218 224 228 0
d 234 162 228 0
d 235 233 162 228 0
d 236 233 162 228 0
d 237 1 2 6 7 12 13 18 23 24 29 30 35 40 45 50 55 60 65 70 75 80 85 90 95 100 105 110 115 120 125 130 135 140 145 150 154 158 162 167 173 178 183 188 193 197 202 208 213 218 224 228 233 0
d 239 173 228 0
d 240 238 173 228 0
d 241 238 173 228 0
d 242 1 2 6 7 12 13 18 23 24 29 30 35 40 45 50 55 60 65 70 75 80 85 90 95 100 105 110 115 120 125 130 135 140 145 150 154 158 162 167 173 178 183 188 193 197 202 208 213 218 224 228 233 238 0
d 244 183 228 0
d 245 243 183 228 0
d 246 243 183 228 0
d 247 1 2 6 7 12 13 18 23 24 29 30 35 40 45 50 55 60 65 70 75 80 85 90 95 100 105 110 115 120 125 130 135 140 145 150 154 158 162 167 173 178 183 188 193 197 202 208 213 218 224 228 233 238 243 0
d 249 248 193 0
d 250 248 193 0
d 251 1 2 6 7 12 13 18 23 24 29 30 35 40 45 50 55 60 65 70 75 80 85 90 95 100 105 110 115 120 125 130 135 140 145 150 154 158 162 167 173 178 183 188 193 197 202 208 213 218 224 228 233 238 243 248 0
d 253 252 228 0
d 254 252 228 0
d 255 1 2 6 7 12 13 18 23 24 29 30 35 40 45 50 55 60 65 70 75 80 85 90 95 100 105 110 115 120 125 130 135 140 145 150 154 158 162 167 173 178 183 188 193 197 202 208 213 218 224 228 233 238 243 248 252 0
d 257 256 24 30 0
d 258 256 24 30 0
d 259 1 2 6 7 12 13 18 23 24 29 30 35 40 45 50 55 60 65 70 75 80 85 90 95 100 105 110 115 120 125 130 135 140 145 150 154 158 162 167 173 178 183 188 193 197 202 208 213 218 224 228 233 238 243 248 252 256 0
d 261 162 256 0
d 262 260 162 256 0
d 263 260 162 256 0
d 264 1 2 6 7 12 13 18 23 24 29 30 35 40 45 50 55 60 65 70 75 80 85 90 95 100 105 110 115 120 125 130 135 140 145 150 154 158 162 167 173 178 183 188 193 197 202 208 213 218 224 228 233 238 243 248 252 256 260 0
d 266 173 256 0
d 267 265 173 256 0
d 268 265 173 256 0
d 269 1 2 6 7 12 13 18 23 24 29 30 35 40 45 50 55 60 65 70 75 80 85 90 95 100 105 110 115 120 125 130 135 140 145 150 154 158 162 167 173 178 183 188 193 197 202 208 213 218 224 228 233 238 243 248 252 256 260 265 0
d 271 183 256 0
d 272 270 183 256 0
d 273 270 183 256 0
d 274 1 2 6 7 12 13 18 23 24 29 30 35 40 45 50 55 60 65 70 75 80 85 90 95 100 105 110 115 120 125 130 135 140 145 150 154 158 162 167 173 178 183 188 193 197 202 208 213 218 224 228 233 238 243 248 252 256 260 265 270 0
d 276 193 256 0
d 277 275 193 256 0
d 278 275 193 256 0
d 279 1 2 6 7 12 13 18 23 24 29 30 35 40 45 50 55 60 65 70 75 80 85 90 95 100 105 110 115 120 125 130 135 140 145 150 154 158 162 167 173 178 183 188 193 197 202 208 213 218 224 228 233 238 243 248 252 256 260 265 270 275 0
d 281 193 228 0
d 282 280 193 228 0
d 283 280 193 228 0
d 284 1 2 6 7 12 13 18 23 24 29 30 35 40 45 50 55 60 65 70 75 80 85 90 95 100 105 110 115 120 125 130 135 140 145 150 154 158 162 167 173 178 183 188 193 197 202 208 213 218 224 228 233 238 243 248 252 256 260 265 270 275 280 0
d 286 285 256 0
d 287 285 256 0
d 288 1 2 6 7 12 13 18 23 24 29 30 35 40 45 50 55 60 65 70 75 80 85 90 95 100 105 110 115 120 125 130 135 140 145 150 154 158 162 167 173 178 183 188 193 197 202 208 213 218 224 228 233 238 243 248 252 256 260 265 270 275 280 285 0
d 290 289 154 0
d 291 289 154 0
d 292 1 2 6 7 12 13 18 23 24 29 30 35 40 45 50 55 60 65 70 75 80 85 90 95 100 105 110 115 120 125 130 135 140 145 150 154 158 162 167 173 178 183 188 193 197 202 208 213 218 224 228 233 238 243 248 252 256 260 265 270 275 280 285 289 0
d 294 150 293 0
d 295 150 293 167 0
d 297 150 296 0
d 298 150 296 178 0
d 299 150 293 167 296 178 0
d 301 150 300 0
d 302 150 300 188 0
d 304 150 303 0
d 305 150 303 197 0
d 306 150 300 188 303 197 0
d 307 150 293 167 296 178 300 188 303 197 0
d 309 150 308 0
d 310 150 308 202 0
d 312 150 311 0
d 313 150 311 208 0
d 314 150 308 202 311 208 0
d 316 150 315 0
d 317 150 315 213 0
d 319 150 318 0
d 320 150 318 218 0
d 321 150 315 213 318 218 0
d 322 150 308 202 311 208 315 213 318 218 0
d 323 150 293 167 296 178 300 188 303 197 308 202 311 208 315 213 318 218 0
d 325 150 324 0
d 326 150 324 233 0
d 328 150 327 0
d 329 150 327 238 0
d 330 150 324 233 327 238 0
d 332 150 331 0
d 333 150 331 243 0
d 335 150 331 243 445 248 252 2 0
d 336 150 324 233 327 238 331 243 445 248 252 2 0
d 338 150 337 0
d 339 150 337 260 0
d 341 150 340 0
d 342 150 340 265 0
d 343 150 337 260 340 265 0
d 345 150 344 0
d 346 150 344 270 0
d 348 150 347 0
d 349 150 347 275 0
d 350 150 344 270 347 275 0
d 351 150 337 260 340 265 344 270 347 275 0
d 352 150 324 233 327 238 331 243 445 248 252 2 337 260 340 265 344 270 347 275 0
d 353 150 293 167 296 178 300 188 303 197 308 202 311 208 315 213 318 218 324 233 327 238 331 243 445 248 252 2 337 260 340 265 344 270 347 275 0
d 355 2 354 0
d 356 2 354 167 0
d 358 2 357 0
d 359 2 357 178 0
d 360 2 354 167 357 178 0
d 362 2 361 0
d 363 2 361 188 0
d 365 2 364 0
d 366 2 364 197 0
d 367 2 361 188 364 197 0
d 368 2 354 167 357 178 361 188 364 197 0
d 370 2 369 0
d 371 2 369 202 0
d 373 2 372 0
d 374 2 372 208 0
d 375 2 369 202 372 208 0
d 377 2 376 0
d 378 2 376 213 0
d 380 2 474 218 0
d 381 2 376 213 474 218 0
d 382 2 369 202 372 208 376 213 474 218 0
d 383 2 354 167 357 178 361 188 364 197 369 202 372 208 376 213 474 218 0
d 385 2 384 0
d 386 2 384 233 0
d 388 2 387 0
d 389 2 387 238 0
d 390 2 384 233 387 238 0
d 392 2 391 0
d 393 2 391 243 0
d 395 2 394 0
d 396 2 394 280 0
d 397 2 391 243 394 280 0
d 398 2 384 233 387 238 391 243 394 280 0
d 400 2 399 0
d 401 2 399 260 0
d 403 2 402 0
d 404 2 402 265 0
d 405 2 399 260 402 265 0
d 408 2 407 0
d 409 2 407 275 0
d 410 2 490 285 289 13 407 275 0
d 411 2 399 260 402 265 490 285 289 13 407 275 0
d 412 2 384 233 387 238 391 243 394 280 399 260 402 265 490 285 289 13 407 275 0
d 413 2 354 167 357 178 361 188 364 197 369 202 372 208 376 213 474 218 384 233 387 238 391 243 394 280 399 260 402 265 490 285 289 13 407 275 0
d 414 150 293 167 296 178 300 188 303 197 308 202 311 208 315 213 318 218 324 233 327 238 331 243 445 248 252 2 337 260 340 265 344 270 347 275 354 357 361 364 369 372 376 474 384 387 391 394 280 399 402 490 285 289 13 407 0
d 415 1 293 0
d 416 1 293 40 0
d 417 1 296 0
d 418 1 296 50 0
d 419 1 293 40 296 50 0
d 420 1 300 0
d 421 1 300 60 0
d 422 1 303 0
d 423 1 303 70 0
d 424 1 300 60 303 70 0
d 425 1 293 40 296 50 300 60 303 70 0
d 426 1 308 0
d 427 1 308 80 0
d 428 1 311 0
d 429 1 311 85 0
d 430 1 308 80 311 85 0
d 431 1 315 0
d 432 1 315 90 0
d 433 1 318 0
d 434 1 318 95 0
d 435 1 315 90 318 95 0
d 436 1 308 80 311 85 315 90 318 95 0
d 437 1 293 40 296 50 300 60 303 70 308 80 311 85 315 90 318 95 0
d 438 1 324 0
d 439 1 324 105 0
d 440 1 327 0
d 441 1 327 110 0
d 442 1 324 105 327 110 0
d 443 1 331 0
d 444 1 331 115 0
d 446 1 445 0
d 447 1 445 120 0
d 448 1 331 115 445 120 0
d 449 1 324 105 327 110 331 115 445 120 0
d 450 1 337 0
d 451 1 337 130 0
d 452 1 340 0
d 453 1 340 135 0
d 454 1 337 130 340 135 0
d 455 1 344 0
d 456 1 344 140 0
d 457 1 347 0
d 458 1 347 145 0
d 459 1 344 140 347 145 0
d 460 1 337 130 340 135 344 140 347 145 0
d 461 1 324 105 327 110 331 115 445 120 337 130 340 135 344 140 347 145 0
d 462 1 293 40 296 50 300 60 303 70 308 80 311 85 315 90 318 95 324 105 327 110 331 115 445 120 337 130 340 135 344 140 347 145 0
d 463 2 354 40 0
d 464 2 357 50 0
d 465 2 354 40 357 50 0
d 466 2 361 60 0
d 467 2 364 70 0
d 468 2 361 60 364 70 0
d 469 2 354 40 357 50 361 60 364 70 0
d 470 2 369 80 0
d 471 2 372 85 0
d 472 2 369 80 372 85 0
d 473 2 376 90 0
d 475 2 474 0
d 476 2 474 95 0
d 477 2 376 90 474 95 0
d 478 2 369 80 372 85 376 90 474 95 0
d 479 2 354 40 357 50 361 60 364 70 369 80 372 85 376 90 474 95 0
d 480 2 384 105 0
d 481 2 387 110 0
d 482 2 384 105 387 110 0
d 483 2 391 115 0
d 484 2 394 120 0
d 485 2 391 115 394 120 0
d 486 2 384 105 387 110 391 115 394 120 0
d 487 2 399 130 0
d 488 2 402 135 0
d 489 2 399 130 402 135 0
d 491 2 490 0
d 492 2 490 140 0
d 493 2 407 145 0
d 494 2 490 140 407 145 0
d 495 2 399 130 402 135 490 140 407 145 0
d 496 2 384 105 387 110 391 115 394 120 399 130 402 135 490 140 407 145 0
d 497 2 354 40 357 50 361 60 364 70 369 80 372 85 376 90 474 95 384 105 387 110 391 115 394 120 399 130 402 135 490 140 407 145 0
d 498 1 293 40 296 50 300 60 303 70 308 80 311 85 315 90 318 95 324 105 327 110 331 115 445 120 337 130 340 135 344 140 347 145 2 354 357 361 364 369 372 376 474 384 387 391 394 399 402 490 407 0
d 499 150 293 167 296 178 300 188 303 197 308 202 311 208 315 213 318 218 324 233 327 238 331 243 445 248 252 2 337 260 340 265 344 270 347 275 354 357 361 364 369 372 376 474 384 387 391 394 280 399 402 490 285 289 13 407 1 40 50 60 70 80 85 90 95 105 110 115 120 130 135 140 145 0
d 500 1 2 6 7 12 13 18 23 24 29 30 35 40 45 50 55 60 65 70 75 80 85 90 95 100 105 110 115 120 125 130 135 140 145 150 154 158 162 167 173 178 183 188 193 197 202 208 213 218 224 228 233 238 243 248 252 256 260 265 270 275 280 285 289 293 296 300 303 308 311 315 318 324 327 331 445 337 340 344 347 354 357 361 364 369 372 376 474 384 387 391 394 399 402 490 407 0
3 2 0
-3 -2 0
4 -1 -3 0
4 1 3 0
-4 -1 3 0
-4 1 -3 0
5 4 0
-5 -4 0
8 7 0
-8 -7 0
9 -6 -8 0
9 6 8 0
-9 -6 8 0
-9 6 -8 0
10 9 0
-10 -9 0
11 -5 0
11 -10 0
-11 5 10 0
14 13 0
-14 -13 0
15 -12 -14 0
15 12 14 0
-15 -12 14 0
-15 12 -14 0
16 15 0
-16 -15 0
17 -11 0
17 -16 0
-17 11 16 0
-19 6 0
-19 12 0
19 -6 -12 0
20 -18 -19 0
20 18 19 0
-20 -18 19 0
-20 18 -19 0
21 20 0
-21 -20 0
22 -17 0
22 -21 0
-22 17 21 0
25 24 0
-25 -24 0
26 -23 -25 0
26 23 25 0
-26 -23 25 0
-26 23 -25 0
27 26 0
-27 -26 0
28 -22 0
28 -27 0
-28 22 27 0
31 30 0
-31 -30 0
32 -29 -31 0
32 29 31 0
-32 -29 31 0
-32 29 -31 0
33 32 0
-33 -32 0
34 -28 0
34 -33 0
-34 28 33 0
-36 23 0
-36 29 0
36 -23 -29 0
37 -35 -36 0
37 35 36 0
-37 -35 36 0
-37 35 -36 0
38 37 0
-38 -37 0
39 -34 0
39 -38 0
-39 34 38 0
-41 18 0
-41 35 0
41 -18 -35 0
42 -40 -41 0
42 40 41 0
-42 -40 41 0
-42 40 -41 0
43 42 0
-43 -42 0
44 -39 0
44 -43 0
-44 39 43 0
-46 7 0
-46 12 0
46 -7 -12 0
47 -45 -46 0
47 45 46 0
-47 -45 46 0
-47 45 -46 0
48 47 0
-48 -47 0
49 -44 0
49 -48 0
-49 44 48 0
-51 45 0
-51 35 0
51 -45 -35 0
52 -50 -51 0
52 50 51 0
-52 -50 51 0
-52 50 -51 0
53 52 0
-53 -52 0
54 -49 0
54 -53 0
-54 49 53 0
-56 6 0
-56 13 0
56 -6 -13 0
57 -55 -56 0
57 55 56 0
-57 -55 56 0
-57 55 -56 0
58 57 0
-58 -57 0
59 -54 0
59 -58 0
-59 54 58 0
-61 55 0
-61 35 0
61 -55 -35 0
62 -60 -61 0
62 60 61 0
-62 -60 61 0
-62 60 -61 0
63 62 0
-63 -62 0
64 -59 0
64 -63 0
-64 59 63 0
-66 7 0
-66 13 0
66 -7 -13 0
67 -65 -66 0
67 65 66 0
-67 -65 66 0
-67 65 -66 0
68 67 0
-68 -67 0
69 -64 0
69 -68 0
-69 64 68 0
-71 65 0
-71 35 0
71 -65 -35 0
72 -70 -71 0
72 70 71 0
-72 -70 71 0
-72 70 -71 0
73 72 0
-73 -72 0
74 -69 0
74 -73 0
-74 69 73 0
-76 24 0
-76 29 0
76 -24 -29 0
77 -75 -76 0
77 75 76 0
-77 -75 76 0
-77 75 -76 0
78 77 0
-78 -77 0
79 -74 0
79 -78 0
-79 74 78 0
-81 18 0
-81 75 0
81 -18 -75 0
82 -80 -81 0
82 80 81 0
-82 -80 81 0
-82 80 -81 0
83 82 0
-83 -82 0
84 -79 0
84 -83 0
-84 79 83 0
-86 45 0
-86 75 0
86 -45 -75 0
87 -85 -86 0
87 85 86 0
-87 -85 86 0
-87 85 -86 0
88 87 0
-88 -87 0
89 -84 0
89 -88 0
-89 84 88 0
-91 55 0
-91 75 0
91 -55 -75 0
92 -90 -91 0
92 90 91 0
-92 -90 91 0
-92 90 -91 0
93 92 0
-93 -92 0
94 -89 0
94 -93 0
-94 89 93 0
-96 65 0
-96 75 0
96 -65 -75 0
97 -95 -96 0
97 95 96 0
-97 -95 96 0
-97 95 -96 0
98 97 0
-98 -97 0
99 -94 0
99 -98 0
-99 94 98 0
-101 23 0
-101 30 0
101 -23 -30 0
102 -100 -101 0
102 100 101 0
-102 -100 101 0
-102 100 -101 0
103 102 0
-103 -102 0
104 -99 0
104 -103 0
-104 99 103 0
-106 18 0
-106 100 0
106 -18 -100 0
107 -105 -106 0
107 105 106 0
-107 -105 106 0
-107 105 -106 0
108 107 0
-108 -107 0
109 -104 0
109 -108 0
-109 104 108 0
-111 45 0
-111 100 0
111 -45 -100 0
112 -110 -111 0
112 110 111 0
-112 -110 111 0
-112 110 -111 0
113 112 0
-113 -112 0
114 -109 0
114 -113 0
-114 109 113 0
-116 55 0
-116 100 0
116 -55 -100 0
117 -115 -116 0
117 115 116 0
-117 -115 116 0
-117 115 -116 0
118 117 0
-118 -117 0
119 -114 0
119 -118 0
-119 114 118 0
-121 65 0
-121 100 0
121 -65 -100 0
122 -120 -121 0
122 120 121 0
-122 -120 121 0
-122 120 -121 0
123 122 0
-123 -122 0
124 -119 0
124 -123 0
-124 119 123 0
-126 24 0
-126 30 0
126 -24 -30 0
127 -125 -126 0
127 125 126 0
-127 -125 126 0
-127 125 -126 0
128 127 0
-128 -127 0
129 -124 0
129 -128 0
-129 124 128 0
-131 18 0
-131 125 0
131 -18 -125 0
132 -130 -131 0
132 130 131 0
-132 -130 131 0
-132 130 -131 0
133 132 0
-133 -132 0
134 -129 0
134 -133 0
-134 129 133 0
-136 45 0
-136 125 0
136 -45 -125 0
137 -135 -136 0
137 135 136 0
-137 -135 136 0
-137 135 -136 0
138 137 0
-138 -137 0
139 -134 0
139 -138 0
-139 134 138 0
-141 55 0
-141 125 0
141 -55 -125 0
142 -140 -141 0
142 140 141 0
-142 -140 141 0
-142 140 -141 0
143 142 0
-143 -142 0
144 -139 0
144 -143 0
-144 139 143 0
-146 65 0
-146 125 0
146 -65 -125 0
147 -145 -146 0
147 145 146 0
-147 -145 146 0
-147 145 -146 0
148 147 0
-148 -147 0
149 -144 0
149 -148 0
-149 144 148 0
151 -150 -3 0
151 150 3 0
-151 -150 3 0
-151 150 -3 0
152 151 0
-152 -151 0
153 -149 0
153 -152 0
-153 149 152 0
155 -154 -8 0
155 154 8 0
-155 -154 8 0
-155 154 -8 0
156 155 0
-156 -155 0
157 -153 0
157 -156 0
-157 153 156 0
159 -158 -14 0
159 158 14 0
-159 -158 14 0
-159 158 -14 0
160 159 0
-160 -159 0
161 -157 0
161 -160 0
-161 157 160 0
-163 154 0
-163 158 0
163 -154 -158 0
164 -162 -163 0
164 162 163 0
-164 -162 163 0
-164 162 -163 0
165 164 0
-165 -164 0
166 -161 0
166 -165 0
-166 161 165 0
-169 162 0
-169 168 0
169 -162 -168 0
170 -167 -169 0
170 167 169 0
-170 -167 169 0
-170 167 -169 0
171 170 0
-171 -170 0
172 -166 0
172 -171 0
-172 166 171 0
-174 7 0
-174 158 0
174 -7 -158 0
175 -173 -174 0
175 173 174 0
-175 -173 174 0
-175 173 -174 0
176 175 0
-176 -175 0
177 -172 0
177 -176 0
-177 172 176 0
-179 173 0
-179 168 0
179 -173 -168 0
180 -178 -179 0
180 178 179 0
-180 -178 179 0
-180 178 -179 0
181 180 0
-181 -180 0
182 -177 0
182 -181 0
-182 177 181 0
-184 154 0
-184 13 0
184 -154 -13 0
185 -183 -184 0
185 183 184 0
-185 -183 184 0
-185 183 -184 0
186 185 0
-186 -185 0
187 -182 0
187 -186 0
-187 182 186 0
-189 183 0
-189 168 0
189 -183 -168 0
190 -188 -189 0
190 188 189 0
-190 -188 189 0
-190 188 -189 0
191 190 0
-191 -190 0
192 -187 0
192 -191 0
-192 187 191 0
194 -193 -66 0
194 193 66 0
-194 -193 66 0
-194 193 -66 0
195 194 0
-195 -194 0
196 -192 0
196 -195 0
-196 192 195 0
-198 193 0
-198 168 0
198 -193 -168 0
199 -197 -198 0
199 197 198 0
-199 -197 198 0
-199 197 -198 0
200 199 0
-200 -199 0
201 -196 0
201 -200 0
-201 196 200 0
-204 162 0
-204 203 0
204 -162 -203 0
205 -202 -204 0
205 202 204 0
-205 -202 204 0
-205 202 -204 0
206 205 0
-206 -205 0
207 -201 0
207 -206 0
-207 201 206 0
-209 173 0
-209 203 0
209 -173 -203 0
210 -208 -209 0
210 208 209 0
-210 -208 209 0
-210 208 -209 0
211 210 0
-211 -210 0
212 -207 0
212 -211 0
-212 207 211 0
-214 183 0
-214 203 0
214 -183 -203 0
215 -213 -214 0
215 213 214 0
-215 -213 214 0
-215 213 -214 0
216 215 0
-216 -215 0
217 -212 0
217 -216 0
-217 212 216 0
219 -193 0
219 -203 0
-219 193 203 0
220 219 0
-220 -219 0
221 -218 -220 0
221 218 220 0
-221 -218 220 0
-221 218 -220 0
222 221 0
-222 -221 0
223 -217 0
223 -222 0
-223 217 222 0
225 -224 -25 0
225 224 25 0
-225 -224 25 0
-225 224 -25 0
226 225 0
-226 -225 0
227 -223 0
227 -226 0
-227 223 226 0
-229 224 0
-229 30 0
229 -224 -30 0
230 -228 -229 0
230 228 229 0
-230 -228 229 0
-230 228 -229 0
231 230 0
-231 -230 0
232 -227 0
232 -231 0
-232 227 231 0
-234 162 0
-234 228 0
234 -162 -228 0
235 -233 -234 0
235 233 234 0
-235 -233 234 0
-235 233 -234 0
236 235 0
-236 -235 0
237 -232 0
237 -236 0
-237 232 236 0
-239 173 0
-239 228 0
239 -173 -228 0
240 -238 -239 0
240 238 239 0
-240 -238 239 0
-240 238 -239 0
241 240 0
-241 -240 0
242 -237 0
242 -241 0
-242 237 241 0
-244 183 0
-244 228 0
244 -183 -228 0
245 -243 -244 0
245 243 244 0
-245 -243 244 0
-245 243 -244 0
246 245 0
-246 -245 0
247 -242 0
247 -246 0
-247 242 246 0
249 -248 -193 0
249 248 193 0
-249 -248 193 0
-249 248 -193 0
250 249 0
-250 -249 0
251 -247 0
251 -250 0
-251 247 250 0
253 -252 -228 0
253 252 228 0
-253 -252 228 0
-253 252 -228 0
254 253 0
-254 -253 0
255 -251 0
255 -254 0
-255 251 254 0
257 -256 -126 0
257 256 126 0
-257 -256 126 0
-257 256 -126 0
258 257 0
-258 -257 0
259 -255 0
259 -258 0
-259 255 258 0
-261 162 0
-261 256 0
261 -162 -256 0
262 -260 -261 0
262 260 261 0
-262 -260 261 0
-262 260 -261 0
263 262 0
-263 -262 0
264 -259 0
264 -263 0
-264 259 263 0
-266 173 0
-266 256 0
266 -173 -256 0
267 -265 -266 0
267 265 266 0
-267 -265 266 0
-267 265 -266 0
268 267 0
-268 -267 0
269 -264 0
269 -268 0
-269 264 268 0
-271 183 0
-271 256 0
271 -183 -256 0
272 -270 -271 0
272 270 271 0
-272 -270 271 0
-272 270 -271 0
273 272 0
-273 -272 0
274 -269 0
274 -273 0
-274 269 273 0
-276 193 0
-276 256 0
276 -193 -256 0
277 -275 -276 0
277 275 276 0
-277 -275 276 0
-277 275 -276 0
278 277 0
-278 -277 0
279 -274 0
279 -278 0
-279 274 278 0
-281 193 0
-281 228 0
281 -193 -228 0
282 -280 -281 0
282 280 281 0
-282 -280 281 0
-282 280 -281 0
283 282 0
-283 -282 0
284 -279 0
284 -283 0
-284 279 283 0
286 -285 -256 0
286 285 256 0
-286 -285 256 0
-286 285 -256 0
287 286 0
-287 -286 0
288 -284 0
288 -287 0
-288 284 287 0
290 -289 -154 0
290 289 154 0
-290 -289 154 0
-290 289 -154 0
291 290 0
-291 -290 0
292 -288 0
292 -291 0
-292 288 291 0
-294 150 0
-294 293 0
294 -150 -293 0
-295 294 0
-295 167 0
295 -294 -167 0
-297 150 0
-297 296 0
297 -150 -296 0
-298 297 0
-298 178 0
298 -297 -178 0
299 -295 0
299 -298 0
-299 295 298 0
-301 150 0
-301 300 0
301 -150 -300 0
-302 301 0
-302 188 0
302 -301 -188 0
-304 150 0
-304 303 0
304 -150 -303 0
-305 304 0
-305 197 0
305 -304 -197 0
306 -302 0
306 -305 0
-306 302 305 0
307 -299 0
307 -306 0
-307 299 306 0
-309 150 0
-309 308 0
309 -150 -308 0
-310 309 0
-310 202 0
310 -309 -202 0
-312 150 0
-312 311 0
312 -150 -311 0
-313 312 0
-313 208 0
313 -312 -208 0
314 -310 0
314 -313 0
-314 310 313 0
-316 150 0
-316 315 0
316 -150 -315 0
-317 316 0
-317 213 0
317 -316 -213 0
-319 150 0
-319 318 0
319 -150 -318 0
-320 319 0
-320 218 0
320 -319 -218 0
321 -317 0
321 -320 0
-321 317 320 0
322 -314 0
322 -321 0
-322 314 321 0
323 -307 0
323 -322 0
-323 307 322 0
-325 150 0
-325 324 0
325 -150 -324 0
-326 325 0
-326 233 0
326 -325 -233 0
-328 150 0
-328 327 0
328 -150 -327 0
-329 328 0
-329 238 0
329 -328 -238 0
330 -326 0
330 -329 0
-330 326 329 0
-332 150 0
-332 331 0
332 -150 -331 0
-333 332 0
-333 243 0
333 -332 -243 0
335 -333 0
335 -334 0
-335 333 334 0
336 -330 0
336 -335 0
-336 330 335 0
-338 150 0
-338 337 0
338 -150 -337 0
-339 338 0
-339 260 0
339 -338 -260 0
-341 150 0
-341 340 0
341 -150 -340 0
-342 341 0
-342 265 0
342 -341 -265 0
343 -339 0
343 -342 0
-343 339 342 0
-345 150 0
-345 344 0
345 -150 -344 0
-346 345 0
-346 270 0
346 -345 -270 0
-348 150 0
-348 347 0
348 -150 -347 0
-349 348 0
-349 275 0
349 -348 -275 0
350 -346 0
350 -349 0
-350 346 349 0
351 -343 0
351 -350 0
-351 343 350 0
352 -336 0
352 -351 0
-352 336 351 0
353 -323 0
353 -352 0
-353 323 352 0
-355 2 0
-355 354 0
355 -2 -354 0
-356 355 0
-356 167 0
356 -355 -167 0
-358 2 0
-358 357 0
358 -2 -357 0
-359 358 0
-359 178 0
359 -358 -178 0
360 -356 0
360 -359 0
-360 356 359 0
-362 2 0
-362 361 0
362 -2 -361 0
-363 362 0
-363 188 0
363 -362 -188 0
-365 2 0
-365 364 0
365 -2 -364 0
-366 365 0
-366 197 0
366 -365 -197 0
367 -363 0
367 -366 0
-367 363 366 0
368 -360 0
368 -367 0
-368 360 367 0
-370 2 0
-370 369 0
370 -2 -369 0
-371 370 0
-371 202 0
371 -370 -202 0
-373 2 0
-373 372 0
373 -2 -372 0
-374 373 0
-374 208 0
374 -373 -208 0
375 -371 0
375 -374 0
-375 371 374 0
-377 2 0
-377 376 0
377 -2 -376 0
-378 377 0
-378 213 0
378 -377 -213 0
-380 379 0
-380 218 0
380 -379 -218 0
381 -378 0
381 -380 0
-381 378 380 0
382 -375 0
382 -381 0
-382 375 381 0
383 -368 0
383 -382 0
-383 368 382 0
-385 2 0
-385 384 0
385 -2 -384 0
-386 385 0
-386 233 0
386 -385 -233 0
-388 2 0
-388 387 0
388 -2 -387 0
-389 388 0
-389 238 0
389 -388 -238 0
390 -386 0
390 -389 0
-390 386 389 0
-392 2 0
-392 391 0
392 -2 -391 0
-393 392 0
-393 243 0
393 -392 -243 0
-395 2 0
-395 394 0
395 -2 -394 0
-396 395 0
-396 280 0
396 -395 -280 0
397 -393 0
397 -396 0
-397 393 396 0
398 -390 0
398 -397 0
-398 390 397 0
-400 2 0
-400 399 0
400 -2 -399 0
-401 400 0
-401 260 0
401 -400 -260 0
-403 2 0
-403 402 0
403 -2 -402 0
-404 403 0
-404 265 0
404 -403 -265 0
405 -401 0
405 -404 0
-405 401 404 0
-408 2 0
-408 407 0
408 -2 -407 0
-409 408 0
-409 275 0
409 -408 -275 0
410 -406 0
410 -409 0
-410 406 409 0
411 -405 0
411 -410 0
-411 405 410 0
412 -398 0
412 -411 0
-412 398 411 0
413 -383 0
413 -412 0
-413 383 412 0
414 -353 0
414 -413 0
-414 353 413 0
-415 1 0
-415 293 0
415 -1 -293 0
-416 415 0
-416 40 0
416 -415 -40 0
-417 1 0
-417 296 0
417 -1 -296 0
-418 417 0
-418 50 0
418 -417 -50 0
419 -416 0
419 -418 0
-419 416 418 0
-420 1 0
-420 300 0
420 -1 -300 0
-421 420 0
-421 60 0
421 -420 -60 0
-422 1 0
-422 303 0
422 -1 -303 0
-423 422 0
-423 70 0
423 -422 -70 0
424 -421 0
424 -423 0
-424 421 423 0
425 -419 0
425 -424 0
-425 419 424 0
-426 1 0
-426 308 0
426 -1 -308 0
-427 426 0
-427 80 0
427 -426 -80 0
-428 1 0
-428 311 0
428 -1 -311 0
-429 428 0
-429 85 0
429 -428 -85 0
430 -427 0
430 -429 0
-430 427 429 0
-431 1 0
-431 315 0
431 -1 -315 0
-432 431 0
-432 90 0
432 -431 -90 0
-433 1 0
-433 318 0
433 -1 -318 0
-434 433 0
-434 95 0
434 -433 -95 0
435 -432 0
435 -434 0
-435 432 434 0
436 -430 0
436 -435 0
-436 430 435 0
437 -425 0
437 -436 0
-437 425 436 0
-438 1 0
-438 324 0
438 -1 -324 0
-439 438 0
-439 105 0
439 -438 -105 0
-440 1 0
-440 327 0
440 -1 -327 0
-441 440 0
-441 110 0
441 -440 -110 0
442 -439 0
442 -441 0
-442 439 441 0
-443 1 0
-443 331 0
443 -1 -331 0
-444 443 0
-444 115 0
444 -443 -115 0
-446 1 0
-446 445 0
446 -1 -445 0
-447 446 0
-447 120 0
447 -446 -120 0
448 -444 0
448 -447 0
-448 444 447 0
449 -442 0
449 -448 0
-449 442 448 0
-450 1 0
-450 337 0
450 -1 -337 0
-451 450 0
-451 130 0
451 -450 -130 0
-452 1 0
-452 340 0
452 -1 -340 0
-453 452 0
-453 135 0
453 -452 -135 0
454 -451 0
454 -453 0
-454 451 453 0
-455 1 0
-455 344 0
455 -1 -344 0
-456 455 0
-456 140 0
456 -455 -140 0
-457 1 0
-457 347 0
457 -1 -347 0
-458 457 0
-458 145 0
458 -457 -145 0
459 -456 0
459 -458 0
-459 456 458 0
460 -454 0
460 -459 0
-460 454 459 0
461 -449 0
461 -460 0
-461 449 460 0
462 -437 0
462 -461 0
-462 437 461 0
-463 355 0
-463 40 0
463 -355 -40 0
-464 358 0
-464 50 0
464 -358 -50 0
465 -463 0
465 -464 0
-465 463 464 0
-466 362 0
-466 60 0
466 -362 -60 0
-467 365 0
-467 70 0
467 -365 -70 0
468 -466 0
468 -467 0
-468 466 467 0
469 -465 0
469 -468 0
-469 465 468 0
-470 370 0
-470 80 0
470 -370 -80 0
-471 373 0
-471 85 0
471 -373 -85 0
472 -470 0
472 -471 0
-472 470 471 0
-473 377 0
-473 90 0
473 -377 -90 0
-475 2 0
-475 474 0
475 -2 -474 0
-476 475 0
-476 95 0
476 -475 -95 0
477 -473 0
477 -476 0
-477 473 476 0
478 -472 0
478 -477 0
-478 472 477 0
479 -469 0
479 -478 0
-479 469 478 0
-480 385 0
-480 105 0
480 -385 -105 0
-481 388 0
-481 110 0
481 -388 -110 0
482 -480 0
482 -481 0
-482 480 481 0
-483 392 0
-483 115 0
483 -392 -115 0
-484 395 0
-484 120 0
484 -395 -120 0
485 -483 0
485 -484 0
-485 483 484 0
486 -482 0
486 -485 0
-486 482 485 0
-487 400 0
-487 130 0
487 -400 -130 0
-488 403 0
-488 135 0
488 -403 -135 0
489 -487 0
489 -488 0
-489 487 488 0
-491 2 0
-491 490 0
491 -2 -490 0
-492 491 0
-492 140 0
492 -491 -140 0
-493 408 0
-493 145 0
493 -408 -145 0
494 -492 0
494 -493 0
-494 492 493 0
495 -489 0
495 -494 0
-495 489 494 0
496 -486 0
496 -495 0
-496 486 495 0
497 -479 0
497 -496 0
-497 479 496 0
498 -462 0
498 -497 0
-498 462 497 0
499 -414 -498 0
499 414 498 0
-499 -414 498 0
-499 414 -498 0
500 -292 0
500 -499 0
-500 292 499 0
500 0
